
%FILE DATA:	Soccer Computational Problem for MiniZinc Models	%
%AUTHOR:	Jack Wall	%
%CONTACT:  	116397063@umail.ucc.ie			%
%LAST UPDATE:	03/03/2020, 16:21:29						%
%DESCRIPTION: 	50 games played with 40 games left				%


n=10; %number of teams

%Games to play
games=[|5,7|6,5|9,6|7,1|9,2|5,9|8,7|7,4|10,8|3,6|7,10|7,5|2,9|1,6|5,4|4,8|2,10|4,5|3,7|3,9|4,1|3,2|5,10|7,2|4,7|6,7|6,9|5,8|6,2|10,6|8,1|2,4|8,10|2,8|9,4|6,1|3,5|7,6|9,10|1,9|];

%Initial points
iPoints=[21,13,11,9,8,14,11,18,16,12];

%POSITION CONSTRAINTS
% [|teamID, operator, position|...]
% operators index:
%  1 for =  operator
%  2 for >  operator
%  3 for >= operator
%  4 for <  operator
%  5 for <= operator
positionConstraints=[|2,3,1|1,2,1|9,1,3|];